*SENSE:Minimize
NAME          MODEL
ROWS
 N  OBJ
 E  C0000000
 E  C0000001
 L  C0000002
 L  C0000003
 L  C0000004
 E  C0000005
 E  C0000006
 L  C0000007
 L  C0000008
 L  C0000009
 E  C0000010
 E  C0000011
 L  C0000012
 L  C0000013
 L  C0000014
 E  C0000015
 E  C0000016
 L  C0000017
 L  C0000018
 L  C0000019
 E  C0000020
 E  C0000021
 L  C0000022
 L  C0000023
 L  C0000024
 E  C0000025
 E  C0000026
 L  C0000027
 L  C0000028
 L  C0000029
 E  C0000030
 E  C0000031
 L  C0000032
 L  C0000033
 L  C0000034
 E  C0000035
 E  C0000036
 L  C0000037
 L  C0000038
 L  C0000039
 E  C0000040
 E  C0000041
 L  C0000042
 L  C0000043
 L  C0000044
 E  C0000045
 E  C0000046
 L  C0000047
 L  C0000048
 L  C0000049
 E  C0000050
 E  C0000051
 L  C0000052
 L  C0000053
 L  C0000054
 E  C0000055
 E  C0000056
 L  C0000057
 L  C0000058
 L  C0000059
 E  C0000060
 E  C0000061
 L  C0000062
 L  C0000063
 L  C0000064
 E  C0000065
 E  C0000066
 L  C0000067
 L  C0000068
 L  C0000069
 E  C0000070
 E  C0000071
 L  C0000072
 L  C0000073
 L  C0000074
 E  C0000075
 E  C0000076
 L  C0000077
 L  C0000078
 L  C0000079
 E  C0000080
 E  C0000081
 L  C0000082
 L  C0000083
 L  C0000084
 E  C0000085
 E  C0000086
 L  C0000087
 L  C0000088
 L  C0000089
 E  C0000090
 E  C0000091
 L  C0000092
 L  C0000093
 L  C0000094
 E  C0000095
 E  C0000096
 L  C0000097
 L  C0000098
 L  C0000099
 E  C0000100
 E  C0000101
 L  C0000102
 L  C0000103
 L  C0000104
 E  C0000105
 E  C0000106
 L  C0000107
 L  C0000108
 L  C0000109
 E  C0000110
 E  C0000111
 L  C0000112
 L  C0000113
 L  C0000114
 E  C0000115
 E  C0000116
 L  C0000117
 L  C0000118
 L  C0000119
COLUMNS
    X0000000  C0000000  -1.000000000000e+00
    X0000000  C0000001  -9.500000000000e-01
    X0000000  C0000003   1.000000000000e+00
    X0000001  C0000005  -1.000000000000e+00
    X0000001  C0000006  -9.500000000000e-01
    X0000001  C0000008   1.000000000000e+00
    X0000002  C0000050  -1.000000000000e+00
    X0000002  C0000051  -9.500000000000e-01
    X0000002  C0000053   1.000000000000e+00
    X0000003  C0000055  -1.000000000000e+00
    X0000003  C0000056  -9.500000000000e-01
    X0000003  C0000058   1.000000000000e+00
    X0000004  C0000060  -1.000000000000e+00
    X0000004  C0000061  -9.500000000000e-01
    X0000004  C0000063   1.000000000000e+00
    X0000005  C0000065  -1.000000000000e+00
    X0000005  C0000066  -9.500000000000e-01
    X0000005  C0000068   1.000000000000e+00
    X0000006  C0000070  -1.000000000000e+00
    X0000006  C0000071  -9.500000000000e-01
    X0000006  C0000073   1.000000000000e+00
    X0000007  C0000075  -1.000000000000e+00
    X0000007  C0000076  -9.500000000000e-01
    X0000007  C0000078   1.000000000000e+00
    X0000008  C0000080  -1.000000000000e+00
    X0000008  C0000081  -9.500000000000e-01
    X0000008  C0000083   1.000000000000e+00
    X0000009  C0000085  -1.000000000000e+00
    X0000009  C0000086  -9.500000000000e-01
    X0000009  C0000088   1.000000000000e+00
    X0000010  C0000090  -1.000000000000e+00
    X0000010  C0000091  -9.500000000000e-01
    X0000010  C0000093   1.000000000000e+00
    X0000011  C0000095  -1.000000000000e+00
    X0000011  C0000096  -9.500000000000e-01
    X0000011  C0000098   1.000000000000e+00
    X0000012  C0000010  -1.000000000000e+00
    X0000012  C0000011  -9.500000000000e-01
    X0000012  C0000013   1.000000000000e+00
    X0000013  C0000100  -1.000000000000e+00
    X0000013  C0000101  -9.500000000000e-01
    X0000013  C0000103   1.000000000000e+00
    X0000014  C0000105  -1.000000000000e+00
    X0000014  C0000106  -9.500000000000e-01
    X0000014  C0000108   1.000000000000e+00
    X0000015  C0000110  -1.000000000000e+00
    X0000015  C0000111  -9.500000000000e-01
    X0000015  C0000113   1.000000000000e+00
    X0000016  C0000115  -1.000000000000e+00
    X0000016  C0000116  -9.500000000000e-01
    X0000016  C0000118   1.000000000000e+00
    X0000017  C0000015  -1.000000000000e+00
    X0000017  C0000016  -9.500000000000e-01
    X0000017  C0000018   1.000000000000e+00
    X0000018  C0000020  -1.000000000000e+00
    X0000018  C0000021  -9.500000000000e-01
    X0000018  C0000023   1.000000000000e+00
    X0000019  C0000025  -1.000000000000e+00
    X0000019  C0000026  -9.500000000000e-01
    X0000019  C0000028   1.000000000000e+00
    X0000020  C0000030  -1.000000000000e+00
    X0000020  C0000031  -9.500000000000e-01
    X0000020  C0000033   1.000000000000e+00
    X0000021  C0000035  -1.000000000000e+00
    X0000021  C0000036  -9.500000000000e-01
    X0000021  C0000038   1.000000000000e+00
    X0000022  C0000040  -1.000000000000e+00
    X0000022  C0000041  -9.500000000000e-01
    X0000022  C0000043   1.000000000000e+00
    X0000023  C0000045  -1.000000000000e+00
    X0000023  C0000046  -9.500000000000e-01
    X0000023  C0000048   1.000000000000e+00
    X0000024  C0000000   1.000000000000e+00
    X0000024  C0000001   1.052631578947e+00
    X0000024  C0000004   1.000000000000e+00
    X0000025  C0000005   1.000000000000e+00
    X0000025  C0000006   1.052631578947e+00
    X0000025  C0000009   1.000000000000e+00
    X0000026  C0000050   1.000000000000e+00
    X0000026  C0000051   1.052631578947e+00
    X0000026  C0000054   1.000000000000e+00
    X0000027  C0000055   1.000000000000e+00
    X0000027  C0000056   1.052631578947e+00
    X0000027  C0000059   1.000000000000e+00
    X0000028  C0000060   1.000000000000e+00
    X0000028  C0000061   1.052631578947e+00
    X0000028  C0000064   1.000000000000e+00
    X0000029  C0000065   1.000000000000e+00
    X0000029  C0000066   1.052631578947e+00
    X0000029  C0000069   1.000000000000e+00
    X0000030  C0000070   1.000000000000e+00
    X0000030  C0000071   1.052631578947e+00
    X0000030  C0000074   1.000000000000e+00
    X0000031  C0000075   1.000000000000e+00
    X0000031  C0000076   1.052631578947e+00
    X0000031  C0000079   1.000000000000e+00
    X0000032  C0000080   1.000000000000e+00
    X0000032  C0000081   1.052631578947e+00
    X0000032  C0000084   1.000000000000e+00
    X0000033  C0000085   1.000000000000e+00
    X0000033  C0000086   1.052631578947e+00
    X0000033  C0000089   1.000000000000e+00
    X0000034  C0000090   1.000000000000e+00
    X0000034  C0000091   1.052631578947e+00
    X0000034  C0000094   1.000000000000e+00
    X0000035  C0000095   1.000000000000e+00
    X0000035  C0000096   1.052631578947e+00
    X0000035  C0000099   1.000000000000e+00
    X0000036  C0000010   1.000000000000e+00
    X0000036  C0000011   1.052631578947e+00
    X0000036  C0000014   1.000000000000e+00
    X0000037  C0000100   1.000000000000e+00
    X0000037  C0000101   1.052631578947e+00
    X0000037  C0000104   1.000000000000e+00
    X0000038  C0000105   1.000000000000e+00
    X0000038  C0000106   1.052631578947e+00
    X0000038  C0000109   1.000000000000e+00
    X0000039  C0000110   1.000000000000e+00
    X0000039  C0000111   1.052631578947e+00
    X0000039  C0000114   1.000000000000e+00
    X0000040  C0000115   1.000000000000e+00
    X0000040  C0000116   1.052631578947e+00
    X0000040  C0000119   1.000000000000e+00
    X0000041  C0000015   1.000000000000e+00
    X0000041  C0000016   1.052631578947e+00
    X0000041  C0000019   1.000000000000e+00
    X0000042  C0000020   1.000000000000e+00
    X0000042  C0000021   1.052631578947e+00
    X0000042  C0000024   1.000000000000e+00
    X0000043  C0000025   1.000000000000e+00
    X0000043  C0000026   1.052631578947e+00
    X0000043  C0000029   1.000000000000e+00
    X0000044  C0000030   1.000000000000e+00
    X0000044  C0000031   1.052631578947e+00
    X0000044  C0000034   1.000000000000e+00
    X0000045  C0000035   1.000000000000e+00
    X0000045  C0000036   1.052631578947e+00
    X0000045  C0000039   1.000000000000e+00
    X0000046  C0000040   1.000000000000e+00
    X0000046  C0000041   1.052631578947e+00
    X0000046  C0000044   1.000000000000e+00
    X0000047  C0000045   1.000000000000e+00
    X0000047  C0000046   1.052631578947e+00
    X0000047  C0000049   1.000000000000e+00
    X0000048  C0000000  -1.000000000000e+00
    X0000048  OBJ       -1.300000000000e+01
    X0000049  C0000005  -1.000000000000e+00
    X0000049  OBJ       -1.300000000000e+01
    X0000050  C0000050  -1.000000000000e+00
    X0000050  OBJ       -2.500000000000e+01
    X0000051  C0000055  -1.000000000000e+00
    X0000051  OBJ       -2.500000000000e+01
    X0000052  C0000060  -1.000000000000e+00
    X0000052  OBJ       -2.500000000000e+01
    X0000053  C0000065  -1.000000000000e+00
    X0000053  OBJ       -2.500000000000e+01
    X0000054  C0000070  -1.000000000000e+00
    X0000054  OBJ       -2.500000000000e+01
    X0000055  C0000075  -1.000000000000e+00
    X0000055  OBJ       -4.580000000000e+01
    X0000056  C0000080  -1.000000000000e+00
    X0000056  OBJ       -4.580000000000e+01
    X0000057  C0000085  -1.000000000000e+00
    X0000057  OBJ       -4.580000000000e+01
    X0000058  C0000090  -1.000000000000e+00
    X0000058  OBJ       -4.580000000000e+01
    X0000059  C0000095  -1.000000000000e+00
    X0000059  OBJ       -4.580000000000e+01
    X0000060  C0000010  -1.000000000000e+00
    X0000060  OBJ       -1.300000000000e+01
    X0000061  C0000100  -1.000000000000e+00
    X0000061  OBJ       -1.300000000000e+01
    X0000062  C0000105  -1.000000000000e+00
    X0000062  OBJ       -1.300000000000e+01
    X0000063  C0000110  -1.000000000000e+00
    X0000063  OBJ       -1.300000000000e+01
    X0000064  C0000115  -1.000000000000e+00
    X0000064  OBJ       -1.300000000000e+01
    X0000065  C0000015  -1.000000000000e+00
    X0000065  OBJ       -2.500000000000e+01
    X0000066  C0000020  -1.000000000000e+00
    X0000066  OBJ       -2.500000000000e+01
    X0000067  C0000025  -1.000000000000e+00
    X0000067  OBJ       -2.500000000000e+01
    X0000068  C0000030  -1.000000000000e+00
    X0000068  OBJ       -2.500000000000e+01
    X0000069  C0000035  -1.000000000000e+00
    X0000069  OBJ       -2.500000000000e+01
    X0000070  C0000040  -1.000000000000e+00
    X0000070  OBJ       -2.500000000000e+01
    X0000071  C0000045  -1.000000000000e+00
    X0000071  OBJ       -2.500000000000e+01
    X0000072  C0000000   1.000000000000e+00
    X0000072  OBJ        1.300000000000e+01
    X0000073  C0000005   1.000000000000e+00
    X0000073  OBJ        1.300000000000e+01
    X0000074  C0000050   1.000000000000e+00
    X0000074  OBJ        2.500000000000e+01
    X0000075  C0000055   1.000000000000e+00
    X0000075  OBJ        2.500000000000e+01
    X0000076  C0000060   1.000000000000e+00
    X0000076  OBJ        2.500000000000e+01
    X0000077  C0000065   1.000000000000e+00
    X0000077  OBJ        2.500000000000e+01
    X0000078  C0000070   1.000000000000e+00
    X0000078  OBJ        2.500000000000e+01
    X0000079  C0000075   1.000000000000e+00
    X0000079  OBJ        5.400000000000e+01
    X0000080  C0000080   1.000000000000e+00
    X0000080  OBJ        5.400000000000e+01
    X0000081  C0000085   1.000000000000e+00
    X0000081  OBJ        5.400000000000e+01
    X0000082  C0000090   1.000000000000e+00
    X0000082  OBJ        5.400000000000e+01
    X0000083  C0000095   1.000000000000e+00
    X0000083  OBJ        5.400000000000e+01
    X0000084  C0000010   1.000000000000e+00
    X0000084  OBJ        1.300000000000e+01
    X0000085  C0000100   1.000000000000e+00
    X0000085  OBJ        1.300000000000e+01
    X0000086  C0000105   1.000000000000e+00
    X0000086  OBJ        1.300000000000e+01
    X0000087  C0000110   1.000000000000e+00
    X0000087  OBJ        1.300000000000e+01
    X0000088  C0000115   1.000000000000e+00
    X0000088  OBJ        1.300000000000e+01
    X0000089  C0000015   1.000000000000e+00
    X0000089  OBJ        2.500000000000e+01
    X0000090  C0000020   1.000000000000e+00
    X0000090  OBJ        2.500000000000e+01
    X0000091  C0000025   1.000000000000e+00
    X0000091  OBJ        2.500000000000e+01
    X0000092  C0000030   1.000000000000e+00
    X0000092  OBJ        2.500000000000e+01
    X0000093  C0000035   1.000000000000e+00
    X0000093  OBJ        2.500000000000e+01
    X0000094  C0000040   1.000000000000e+00
    X0000094  OBJ        2.500000000000e+01
    X0000095  C0000045   1.000000000000e+00
    X0000095  OBJ        2.500000000000e+01
    X0000096  C0000001   1.000000000000e+00
    X0000096  C0000006  -1.000000000000e+00
    X0000097  C0000006   1.000000000000e+00
    X0000097  C0000011  -1.000000000000e+00
    X0000098  C0000051   1.000000000000e+00
    X0000098  C0000056  -1.000000000000e+00
    X0000099  C0000056   1.000000000000e+00
    X0000099  C0000061  -1.000000000000e+00
    X0000100  C0000061   1.000000000000e+00
    X0000100  C0000066  -1.000000000000e+00
    X0000101  C0000066   1.000000000000e+00
    X0000101  C0000071  -1.000000000000e+00
    X0000102  C0000071   1.000000000000e+00
    X0000102  C0000076  -1.000000000000e+00
    X0000103  C0000076   1.000000000000e+00
    X0000103  C0000081  -1.000000000000e+00
    X0000104  C0000081   1.000000000000e+00
    X0000104  C0000086  -1.000000000000e+00
    X0000105  C0000086   1.000000000000e+00
    X0000105  C0000091  -1.000000000000e+00
    X0000106  C0000091   1.000000000000e+00
    X0000106  C0000096  -1.000000000000e+00
    X0000107  C0000096   1.000000000000e+00
    X0000107  C0000101  -1.000000000000e+00
    X0000108  C0000011   1.000000000000e+00
    X0000108  C0000016  -1.000000000000e+00
    X0000109  C0000101   1.000000000000e+00
    X0000109  C0000106  -1.000000000000e+00
    X0000110  C0000106   1.000000000000e+00
    X0000110  C0000111  -1.000000000000e+00
    X0000111  C0000111   1.000000000000e+00
    X0000111  C0000116  -1.000000000000e+00
    X0000112  C0000116   1.000000000000e+00
    X0000113  C0000016   1.000000000000e+00
    X0000113  C0000021  -1.000000000000e+00
    X0000114  C0000021   1.000000000000e+00
    X0000114  C0000026  -1.000000000000e+00
    X0000115  C0000026   1.000000000000e+00
    X0000115  C0000031  -1.000000000000e+00
    X0000116  C0000031   1.000000000000e+00
    X0000116  C0000036  -1.000000000000e+00
    X0000117  C0000036   1.000000000000e+00
    X0000117  C0000041  -1.000000000000e+00
    X0000118  C0000041   1.000000000000e+00
    X0000118  C0000046  -1.000000000000e+00
    X0000119  C0000046   1.000000000000e+00
    X0000119  C0000051  -1.000000000000e+00
    MARK      'MARKER'                 'INTORG'
    X0000120  C0000002   1.000000000000e+00
    X0000120  C0000003  -2.500000000000e+01
    MARK      'MARKER'                 'INTEND'
    MARK      'MARKER'                 'INTORG'
    X0000121  C0000007   1.000000000000e+00
    X0000121  C0000008  -2.500000000000e+01
    MARK      'MARKER'                 'INTEND'
    MARK      'MARKER'                 'INTORG'
    X0000122  C0000052   1.000000000000e+00
    X0000122  C0000053  -2.500000000000e+01
    MARK      'MARKER'                 'INTEND'
    MARK      'MARKER'                 'INTORG'
    X0000123  C0000057   1.000000000000e+00
    X0000123  C0000058  -2.500000000000e+01
    MARK      'MARKER'                 'INTEND'
    MARK      'MARKER'                 'INTORG'
    X0000124  C0000062   1.000000000000e+00
    X0000124  C0000063  -2.500000000000e+01
    MARK      'MARKER'                 'INTEND'
    MARK      'MARKER'                 'INTORG'
    X0000125  C0000067   1.000000000000e+00
    X0000125  C0000068  -2.500000000000e+01
    MARK      'MARKER'                 'INTEND'
    MARK      'MARKER'                 'INTORG'
    X0000126  C0000072   1.000000000000e+00
    X0000126  C0000073  -2.500000000000e+01
    MARK      'MARKER'                 'INTEND'
    MARK      'MARKER'                 'INTORG'
    X0000127  C0000077   1.000000000000e+00
    X0000127  C0000078  -2.500000000000e+01
    MARK      'MARKER'                 'INTEND'
    MARK      'MARKER'                 'INTORG'
    X0000128  C0000082   1.000000000000e+00
    X0000128  C0000083  -2.500000000000e+01
    MARK      'MARKER'                 'INTEND'
    MARK      'MARKER'                 'INTORG'
    X0000129  C0000087   1.000000000000e+00
    X0000129  C0000088  -2.500000000000e+01
    MARK      'MARKER'                 'INTEND'
    MARK      'MARKER'                 'INTORG'
    X0000130  C0000092   1.000000000000e+00
    X0000130  C0000093  -2.500000000000e+01
    MARK      'MARKER'                 'INTEND'
    MARK      'MARKER'                 'INTORG'
    X0000131  C0000097   1.000000000000e+00
    X0000131  C0000098  -2.500000000000e+01
    MARK      'MARKER'                 'INTEND'
    MARK      'MARKER'                 'INTORG'
    X0000132  C0000012   1.000000000000e+00
    X0000132  C0000013  -2.500000000000e+01
    MARK      'MARKER'                 'INTEND'
    MARK      'MARKER'                 'INTORG'
    X0000133  C0000102   1.000000000000e+00
    X0000133  C0000103  -2.500000000000e+01
    MARK      'MARKER'                 'INTEND'
    MARK      'MARKER'                 'INTORG'
    X0000134  C0000107   1.000000000000e+00
    X0000134  C0000108  -2.500000000000e+01
    MARK      'MARKER'                 'INTEND'
    MARK      'MARKER'                 'INTORG'
    X0000135  C0000112   1.000000000000e+00
    X0000135  C0000113  -2.500000000000e+01
    MARK      'MARKER'                 'INTEND'
    MARK      'MARKER'                 'INTORG'
    X0000136  C0000117   1.000000000000e+00
    X0000136  C0000118  -2.500000000000e+01
    MARK      'MARKER'                 'INTEND'
    MARK      'MARKER'                 'INTORG'
    X0000137  C0000017   1.000000000000e+00
    X0000137  C0000018  -2.500000000000e+01
    MARK      'MARKER'                 'INTEND'
    MARK      'MARKER'                 'INTORG'
    X0000138  C0000022   1.000000000000e+00
    X0000138  C0000023  -2.500000000000e+01
    MARK      'MARKER'                 'INTEND'
    MARK      'MARKER'                 'INTORG'
    X0000139  C0000027   1.000000000000e+00
    X0000139  C0000028  -2.500000000000e+01
    MARK      'MARKER'                 'INTEND'
    MARK      'MARKER'                 'INTORG'
    X0000140  C0000032   1.000000000000e+00
    X0000140  C0000033  -2.500000000000e+01
    MARK      'MARKER'                 'INTEND'
    MARK      'MARKER'                 'INTORG'
    X0000141  C0000037   1.000000000000e+00
    X0000141  C0000038  -2.500000000000e+01
    MARK      'MARKER'                 'INTEND'
    MARK      'MARKER'                 'INTORG'
    X0000142  C0000042   1.000000000000e+00
    X0000142  C0000043  -2.500000000000e+01
    MARK      'MARKER'                 'INTEND'
    MARK      'MARKER'                 'INTORG'
    X0000143  C0000047   1.000000000000e+00
    X0000143  C0000048  -2.500000000000e+01
    MARK      'MARKER'                 'INTEND'
    MARK      'MARKER'                 'INTORG'
    X0000144  C0000002   1.000000000000e+00
    X0000144  C0000004  -2.500000000000e+01
    MARK      'MARKER'                 'INTEND'
    MARK      'MARKER'                 'INTORG'
    X0000145  C0000007   1.000000000000e+00
    X0000145  C0000009  -2.500000000000e+01
    MARK      'MARKER'                 'INTEND'
    MARK      'MARKER'                 'INTORG'
    X0000146  C0000052   1.000000000000e+00
    X0000146  C0000054  -2.500000000000e+01
    MARK      'MARKER'                 'INTEND'
    MARK      'MARKER'                 'INTORG'
    X0000147  C0000057   1.000000000000e+00
    X0000147  C0000059  -2.500000000000e+01
    MARK      'MARKER'                 'INTEND'
    MARK      'MARKER'                 'INTORG'
    X0000148  C0000062   1.000000000000e+00
    X0000148  C0000064  -2.500000000000e+01
    MARK      'MARKER'                 'INTEND'
    MARK      'MARKER'                 'INTORG'
    X0000149  C0000067   1.000000000000e+00
    X0000149  C0000069  -2.500000000000e+01
    MARK      'MARKER'                 'INTEND'
    MARK      'MARKER'                 'INTORG'
    X0000150  C0000072   1.000000000000e+00
    X0000150  C0000074  -2.500000000000e+01
    MARK      'MARKER'                 'INTEND'
    MARK      'MARKER'                 'INTORG'
    X0000151  C0000077   1.000000000000e+00
    X0000151  C0000079  -2.500000000000e+01
    MARK      'MARKER'                 'INTEND'
    MARK      'MARKER'                 'INTORG'
    X0000152  C0000082   1.000000000000e+00
    X0000152  C0000084  -2.500000000000e+01
    MARK      'MARKER'                 'INTEND'
    MARK      'MARKER'                 'INTORG'
    X0000153  C0000087   1.000000000000e+00
    X0000153  C0000089  -2.500000000000e+01
    MARK      'MARKER'                 'INTEND'
    MARK      'MARKER'                 'INTORG'
    X0000154  C0000092   1.000000000000e+00
    X0000154  C0000094  -2.500000000000e+01
    MARK      'MARKER'                 'INTEND'
    MARK      'MARKER'                 'INTORG'
    X0000155  C0000097   1.000000000000e+00
    X0000155  C0000099  -2.500000000000e+01
    MARK      'MARKER'                 'INTEND'
    MARK      'MARKER'                 'INTORG'
    X0000156  C0000012   1.000000000000e+00
    X0000156  C0000014  -2.500000000000e+01
    MARK      'MARKER'                 'INTEND'
    MARK      'MARKER'                 'INTORG'
    X0000157  C0000102   1.000000000000e+00
    X0000157  C0000104  -2.500000000000e+01
    MARK      'MARKER'                 'INTEND'
    MARK      'MARKER'                 'INTORG'
    X0000158  C0000107   1.000000000000e+00
    X0000158  C0000109  -2.500000000000e+01
    MARK      'MARKER'                 'INTEND'
    MARK      'MARKER'                 'INTORG'
    X0000159  C0000112   1.000000000000e+00
    X0000159  C0000114  -2.500000000000e+01
    MARK      'MARKER'                 'INTEND'
    MARK      'MARKER'                 'INTORG'
    X0000160  C0000117   1.000000000000e+00
    X0000160  C0000119  -2.500000000000e+01
    MARK      'MARKER'                 'INTEND'
    MARK      'MARKER'                 'INTORG'
    X0000161  C0000017   1.000000000000e+00
    X0000161  C0000019  -2.500000000000e+01
    MARK      'MARKER'                 'INTEND'
    MARK      'MARKER'                 'INTORG'
    X0000162  C0000022   1.000000000000e+00
    X0000162  C0000024  -2.500000000000e+01
    MARK      'MARKER'                 'INTEND'
    MARK      'MARKER'                 'INTORG'
    X0000163  C0000027   1.000000000000e+00
    X0000163  C0000029  -2.500000000000e+01
    MARK      'MARKER'                 'INTEND'
    MARK      'MARKER'                 'INTORG'
    X0000164  C0000032   1.000000000000e+00
    X0000164  C0000034  -2.500000000000e+01
    MARK      'MARKER'                 'INTEND'
    MARK      'MARKER'                 'INTORG'
    X0000165  C0000037   1.000000000000e+00
    X0000165  C0000039  -2.500000000000e+01
    MARK      'MARKER'                 'INTEND'
    MARK      'MARKER'                 'INTORG'
    X0000166  C0000042   1.000000000000e+00
    X0000166  C0000044  -2.500000000000e+01
    MARK      'MARKER'                 'INTEND'
    MARK      'MARKER'                 'INTORG'
    X0000167  C0000047   1.000000000000e+00
    X0000167  C0000049  -2.500000000000e+01
    MARK      'MARKER'                 'INTEND'
RHS
    RHS       C0000000   2.581831910000e-01
    RHS       C0000001   5.000000000000e+01
    RHS       C0000002   1.000000000000e+00
    RHS       C0000003   0.000000000000e+00
    RHS       C0000004   0.000000000000e+00
    RHS       C0000005   1.486494080000e-01
    RHS       C0000006   0.000000000000e+00
    RHS       C0000007   1.000000000000e+00
    RHS       C0000008   0.000000000000e+00
    RHS       C0000009   0.000000000000e+00
    RHS       C0000010   2.842262730000e-01
    RHS       C0000011   0.000000000000e+00
    RHS       C0000012   1.000000000000e+00
    RHS       C0000013   0.000000000000e+00
    RHS       C0000014   0.000000000000e+00
    RHS       C0000015   4.352226500000e-01
    RHS       C0000016   0.000000000000e+00
    RHS       C0000017   1.000000000000e+00
    RHS       C0000018   0.000000000000e+00
    RHS       C0000019   0.000000000000e+00
    RHS       C0000020  -3.137664071582e-02
    RHS       C0000021   0.000000000000e+00
    RHS       C0000022   1.000000000000e+00
    RHS       C0000023   0.000000000000e+00
    RHS       C0000024   0.000000000000e+00
    RHS       C0000025  -4.821696918945e-01
    RHS       C0000026   0.000000000000e+00
    RHS       C0000027   1.000000000000e+00
    RHS       C0000028   0.000000000000e+00
    RHS       C0000029   0.000000000000e+00
    RHS       C0000030   1.832526259258e+00
    RHS       C0000031   0.000000000000e+00
    RHS       C0000032   1.000000000000e+00
    RHS       C0000033   0.000000000000e+00
    RHS       C0000034   0.000000000000e+00
    RHS       C0000035   1.261556379227e+00
    RHS       C0000036   0.000000000000e+00
    RHS       C0000037   1.000000000000e+00
    RHS       C0000038   0.000000000000e+00
    RHS       C0000039   0.000000000000e+00
    RHS       C0000040  -1.520779615422e+00
    RHS       C0000041   0.000000000000e+00
    RHS       C0000042   1.000000000000e+00
    RHS       C0000043   0.000000000000e+00
    RHS       C0000044   0.000000000000e+00
    RHS       C0000045  -2.316592575438e+00
    RHS       C0000046   0.000000000000e+00
    RHS       C0000047   1.000000000000e+00
    RHS       C0000048   0.000000000000e+00
    RHS       C0000049   0.000000000000e+00
    RHS       C0000050  -3.406724587516e+00
    RHS       C0000051   0.000000000000e+00
    RHS       C0000052   1.000000000000e+00
    RHS       C0000053   0.000000000000e+00
    RHS       C0000054   0.000000000000e+00
    RHS       C0000055  -3.824364033281e+00
    RHS       C0000056   0.000000000000e+00
    RHS       C0000057   1.000000000000e+00
    RHS       C0000058   0.000000000000e+00
    RHS       C0000059   0.000000000000e+00
    RHS       C0000060  -3.969894146969e+00
    RHS       C0000061   0.000000000000e+00
    RHS       C0000062   1.000000000000e+00
    RHS       C0000063   0.000000000000e+00
    RHS       C0000064   0.000000000000e+00
    RHS       C0000065  -3.882746822656e+00
    RHS       C0000066   0.000000000000e+00
    RHS       C0000067   1.000000000000e+00
    RHS       C0000068   0.000000000000e+00
    RHS       C0000069   0.000000000000e+00
    RHS       C0000070  -2.985859136922e+00
    RHS       C0000071   0.000000000000e+00
    RHS       C0000072   1.000000000000e+00
    RHS       C0000073   0.000000000000e+00
    RHS       C0000074   0.000000000000e+00
    RHS       C0000075  -1.719289611875e+00
    RHS       C0000076   0.000000000000e+00
    RHS       C0000077   1.000000000000e+00
    RHS       C0000078   0.000000000000e+00
    RHS       C0000079   0.000000000000e+00
    RHS       C0000080  -1.078653793078e+00
    RHS       C0000081   0.000000000000e+00
    RHS       C0000082   1.000000000000e+00
    RHS       C0000083   0.000000000000e+00
    RHS       C0000084   0.000000000000e+00
    RHS       C0000085   1.068992906406e-01
    RHS       C0000086   0.000000000000e+00
    RHS       C0000087   1.000000000000e+00
    RHS       C0000088   0.000000000000e+00
    RHS       C0000089   0.000000000000e+00
    RHS       C0000090   2.023026145273e+00
    RHS       C0000091   0.000000000000e+00
    RHS       C0000092   1.000000000000e+00
    RHS       C0000093   0.000000000000e+00
    RHS       C0000094   0.000000000000e+00
    RHS       C0000095   2.668562964325e+00
    RHS       C0000096   0.000000000000e+00
    RHS       C0000097   1.000000000000e+00
    RHS       C0000098   0.000000000000e+00
    RHS       C0000099   0.000000000000e+00
    RHS       C0000100   3.020824413000e+00
    RHS       C0000101   0.000000000000e+00
    RHS       C0000102   1.000000000000e+00
    RHS       C0000103   0.000000000000e+00
    RHS       C0000104   0.000000000000e+00
    RHS       C0000105   1.065053588000e+00
    RHS       C0000106   0.000000000000e+00
    RHS       C0000107   1.000000000000e+00
    RHS       C0000108   0.000000000000e+00
    RHS       C0000109   0.000000000000e+00
    RHS       C0000110   2.382648615000e+00
    RHS       C0000111   0.000000000000e+00
    RHS       C0000112   1.000000000000e+00
    RHS       C0000113   0.000000000000e+00
    RHS       C0000114   0.000000000000e+00
    RHS       C0000115   1.849230938000e+00
    RHS       C0000116   0.000000000000e+00
    RHS       C0000117   1.000000000000e+00
    RHS       C0000118   0.000000000000e+00
    RHS       C0000119   0.000000000000e+00
BOUNDS
 UP BND       X0000000   2.500000000000e+01
 UP BND       X0000001   2.500000000000e+01
 UP BND       X0000002   2.500000000000e+01
 UP BND       X0000003   2.500000000000e+01
 UP BND       X0000004   2.500000000000e+01
 UP BND       X0000005   2.500000000000e+01
 UP BND       X0000006   2.500000000000e+01
 UP BND       X0000007   2.500000000000e+01
 UP BND       X0000008   2.500000000000e+01
 UP BND       X0000009   2.500000000000e+01
 UP BND       X0000010   2.500000000000e+01
 UP BND       X0000011   2.500000000000e+01
 UP BND       X0000012   2.500000000000e+01
 UP BND       X0000013   2.500000000000e+01
 UP BND       X0000014   2.500000000000e+01
 UP BND       X0000015   2.500000000000e+01
 UP BND       X0000016   2.500000000000e+01
 UP BND       X0000017   2.500000000000e+01
 UP BND       X0000018   2.500000000000e+01
 UP BND       X0000019   2.500000000000e+01
 UP BND       X0000020   2.500000000000e+01
 UP BND       X0000021   2.500000000000e+01
 UP BND       X0000022   2.500000000000e+01
 UP BND       X0000023   2.500000000000e+01
 UP BND       X0000024   2.500000000000e+01
 UP BND       X0000025   2.500000000000e+01
 UP BND       X0000026   2.500000000000e+01
 UP BND       X0000027   2.500000000000e+01
 UP BND       X0000028   2.500000000000e+01
 UP BND       X0000029   2.500000000000e+01
 UP BND       X0000030   2.500000000000e+01
 UP BND       X0000031   2.500000000000e+01
 UP BND       X0000032   2.500000000000e+01
 UP BND       X0000033   2.500000000000e+01
 UP BND       X0000034   2.500000000000e+01
 UP BND       X0000035   2.500000000000e+01
 UP BND       X0000036   2.500000000000e+01
 UP BND       X0000037   2.500000000000e+01
 UP BND       X0000038   2.500000000000e+01
 UP BND       X0000039   2.500000000000e+01
 UP BND       X0000040   2.500000000000e+01
 UP BND       X0000041   2.500000000000e+01
 UP BND       X0000042   2.500000000000e+01
 UP BND       X0000043   2.500000000000e+01
 UP BND       X0000044   2.500000000000e+01
 UP BND       X0000045   2.500000000000e+01
 UP BND       X0000046   2.500000000000e+01
 UP BND       X0000047   2.500000000000e+01
 LO BND       X0000096   2.000000000000e+01
 UP BND       X0000096   9.000000000000e+01
 LO BND       X0000097   2.000000000000e+01
 UP BND       X0000097   9.000000000000e+01
 LO BND       X0000098   2.000000000000e+01
 UP BND       X0000098   9.000000000000e+01
 LO BND       X0000099   2.000000000000e+01
 UP BND       X0000099   9.000000000000e+01
 LO BND       X0000100   2.000000000000e+01
 UP BND       X0000100   9.000000000000e+01
 LO BND       X0000101   2.000000000000e+01
 UP BND       X0000101   9.000000000000e+01
 LO BND       X0000102   2.000000000000e+01
 UP BND       X0000102   9.000000000000e+01
 LO BND       X0000103   2.000000000000e+01
 UP BND       X0000103   9.000000000000e+01
 LO BND       X0000104   2.000000000000e+01
 UP BND       X0000104   9.000000000000e+01
 LO BND       X0000105   2.000000000000e+01
 UP BND       X0000105   9.000000000000e+01
 LO BND       X0000106   2.000000000000e+01
 UP BND       X0000106   9.000000000000e+01
 LO BND       X0000107   2.000000000000e+01
 UP BND       X0000107   9.000000000000e+01
 LO BND       X0000108   2.000000000000e+01
 UP BND       X0000108   9.000000000000e+01
 LO BND       X0000109   2.000000000000e+01
 UP BND       X0000109   9.000000000000e+01
 LO BND       X0000110   2.000000000000e+01
 UP BND       X0000110   9.000000000000e+01
 LO BND       X0000111   2.000000000000e+01
 UP BND       X0000111   9.000000000000e+01
 LO BND       X0000112   2.000000000000e+01
 UP BND       X0000112   9.000000000000e+01
 LO BND       X0000113   2.000000000000e+01
 UP BND       X0000113   9.000000000000e+01
 LO BND       X0000114   2.000000000000e+01
 UP BND       X0000114   9.000000000000e+01
 LO BND       X0000115   2.000000000000e+01
 UP BND       X0000115   9.000000000000e+01
 LO BND       X0000116   2.000000000000e+01
 UP BND       X0000116   9.000000000000e+01
 LO BND       X0000117   2.000000000000e+01
 UP BND       X0000117   9.000000000000e+01
 LO BND       X0000118   2.000000000000e+01
 UP BND       X0000118   9.000000000000e+01
 LO BND       X0000119   2.000000000000e+01
 UP BND       X0000119   9.000000000000e+01
 BV BND       X0000120
 BV BND       X0000121
 BV BND       X0000122
 BV BND       X0000123
 BV BND       X0000124
 BV BND       X0000125
 BV BND       X0000126
 BV BND       X0000127
 BV BND       X0000128
 BV BND       X0000129
 BV BND       X0000130
 BV BND       X0000131
 BV BND       X0000132
 BV BND       X0000133
 BV BND       X0000134
 BV BND       X0000135
 BV BND       X0000136
 BV BND       X0000137
 BV BND       X0000138
 BV BND       X0000139
 BV BND       X0000140
 BV BND       X0000141
 BV BND       X0000142
 BV BND       X0000143
 BV BND       X0000144
 BV BND       X0000145
 BV BND       X0000146
 BV BND       X0000147
 BV BND       X0000148
 BV BND       X0000149
 BV BND       X0000150
 BV BND       X0000151
 BV BND       X0000152
 BV BND       X0000153
 BV BND       X0000154
 BV BND       X0000155
 BV BND       X0000156
 BV BND       X0000157
 BV BND       X0000158
 BV BND       X0000159
 BV BND       X0000160
 BV BND       X0000161
 BV BND       X0000162
 BV BND       X0000163
 BV BND       X0000164
 BV BND       X0000165
 BV BND       X0000166
 BV BND       X0000167
ENDATA
